<instance format="XCSP3" type="CSP">
  <variables>
    <array id="x" size="[10]"> 1..10 </array>
    <array id="z" size="[42]"> -9..-1 1..9 </array>
  </variables>
  <constraints>
    <group>
      <allDifferent> %... </allDifferent>
      <args> x[] </args>
      <args> z[0..8] </args>
      <args> z[9..16] </args>
      <args> z[17..23] </args>
      <args> z[24..29] </args>
      <args> z[30..34] </args>
      <args> z[35..38] </args>
      <args> z[39..41] </args>
    </group>
    <group>
      <intension> eq(sub(%0,%1),%2) </intension>
      <args> x[0] x[1] z[0] </args>
      <args> x[1] x[2] z[1] </args>
      <args> x[2] x[3] z[2] </args>
      <args> x[3] x[4] z[3] </args>
      <args> x[4] x[5] z[4] </args>
      <args> x[5] x[6] z[5] </args>
      <args> x[6] x[7] z[6] </args>
      <args> x[7] x[8] z[7] </args>
      <args> x[8] x[9] z[8] </args>
      <args> x[0] x[2] z[9] </args>
      <args> x[1] x[3] z[10] </args>
      <args> x[2] x[4] z[11] </args>
      <args> x[3] x[5] z[12] </args>
      <args> x[4] x[6] z[13] </args>
      <args> x[5] x[7] z[14] </args>
      <args> x[6] x[8] z[15] </args>
      <args> x[7] x[9] z[16] </args>
      <args> x[0] x[3] z[17] </args>
      <args> x[1] x[4] z[18] </args>
      <args> x[2] x[5] z[19] </args>
      <args> x[3] x[6] z[20] </args>
      <args> x[4] x[7] z[21] </args>
      <args> x[5] x[8] z[22] </args>
      <args> x[6] x[9] z[23] </args>
      <args> x[0] x[4] z[24] </args>
      <args> x[1] x[5] z[25] </args>
      <args> x[2] x[6] z[26] </args>
      <args> x[3] x[7] z[27] </args>
      <args> x[4] x[8] z[28] </args>
      <args> x[5] x[9] z[29] </args>
      <args> x[0] x[5] z[30] </args>
      <args> x[1] x[6] z[31] </args>
      <args> x[2] x[7] z[32] </args>
      <args> x[3] x[8] z[33] </args>
      <args> x[4] x[9] z[34] </args>
      <args> x[0] x[6] z[35] </args>
      <args> x[1] x[7] z[36] </args>
      <args> x[2] x[8] z[37] </args>
      <args> x[3] x[9] z[38] </args>
      <args> x[0] x[7] z[39] </args>
      <args> x[1] x[8] z[40] </args>
      <args> x[2] x[9] z[41] </args>
    </group>
    <intension> ne(sub(x[0],x[8]),sub(x[1],x[9])) </intension>
  </constraints>
</instance>
